20	5
0	7	5	7	1	3	4	2	6
1	2	16	11
2	2	19	8
3	3	12	19	17
4	2	12	11
5	2	13	10
6	1	11
7	2	17	12
8	0
9	1	20
10	1	9
11	2	17	15
12	2	10	14
13	1	20
14	0
15	2	14	19
16	2	17	19
17	3	13	10	8
18	1	9
19	2	13	10
20	1	21
21	0
0	0	0	0	0	0	0
1	4	5	1	3	2	4
2	5	0	0	3	5	2
3	2	3	0	1	3	0
4	7	2	3	5	1	1
5	3	5	0	0	5	3
6	4	3	4	0	5	0
7	6	4	5	2	2	0
8	6	3	3	1	0	5
9	9	0	2	5	1	0
10	6	5	0	0	0	3
11	2	3	1	1	2	5
12	7	3	5	3	3	2
13	10	3	0	1	0	2
14	10	1	5	4	5	5
15	9	0	4	4	4	0
16	4	2	4	4	2	4
17	6	1	0	4	1	5
18	8	3	5	3	4	1
19	2	0	5	0	0	5
20	8	3	0	2	0	1
21	0	0	0	0	0	0
12	7	8	9	7
